# Solution for model GasLib-40
# Objective value = 1.4260448348724976e+01
loadshed[innode_1] 0
loadshed[innode_2] 0
loadshed[innode_3] 0
loadshed[innode_4] 0
loadshed[innode_5] 0
loadshed[innode_6] 0
loadshed[innode_7] 0
loadshed[innode_8] 0
loadshed[source_1] -1.5010880095110313e-01
loadshed[source_2] 1.4364273974866060e-02
loadshed[source_3] 2.2594898830786858e-01
loadshed[sink_1] 0
loadshed[sink_2] 0
loadshed[sink_3] 0
loadshed[sink_4] 0
loadshed[sink_5] 0
loadshed[sink_6] 0
loadshed[sink_7] 0
loadshed[sink_8] 0
loadshed[sink_9] 0
loadshed[sink_10] 0
loadshed[sink_11] 0
loadshed[sink_12] 8.7197645953987113e-01
loadshed[sink_13] 0
loadshed[sink_14] 0
loadshed[sink_15] 0
loadshed[sink_16] 0
loadshed[sink_17] 0
loadshed[sink_18] 0
loadshed[sink_19] 0
loadshed[sink_20] 0
loadshed[sink_21] 0
loadshed[sink_22] 0
loadshed[sink_23] 0
loadshed[sink_24] 0
loadshed[sink_25] 0
loadshed[sink_26] 0
loadshed[sink_27] 0
loadshed[sink_28] 0
loadshed[sink_29] 0
flow[source_1,sink_3] 1.8182101981702681e+02
flow[innode_1,sink_16] 1.6354166666666970e+01
flow[innode_6,sink_13] -7.8907727859115866e+00
flow[sink_13,sink_14] -2.4244939452578254e+01
flow[sink_14,sink_10] -4.0599106119244922e+01
flow[sink_25,sink_26] 1.8214416632566233e+02
flow[sink_26,sink_9] 1.6563538498461395e+02
flow[sink_9,sink_18] 1.4928121831794729e+02
flow[sink_26,sink_4] 1.5461467438177579e-01
flow[sink_4,sink_20] -1.6199551992284682e+01
flow[sink_18,sink_6] 1.3292705165128064e+02
flow[sink_25,innode_8] -1.4911268648369042e+02
flow[sink_6,sink_7] 8.3864551651280181e+01
flow[sink_6,sink_22] 3.2708333333333641e+01
flow[sink_7,sink_24] 3.4802051651275029e+01
flow[sink_22,sink_1] 1.6354166666666970e+01
flow[sink_24,sink_21] 1.8447884984608358e+01
flow[sink_21,sink_12] 2.0937183179416903e+00
flow[sink_7,sink_5] 3.2708333333338757e+01
flow[sink_5,sink_17] 1.6354166666672086e+01
flow[sink_17,sink_4] 0
flow[sink_17,sink_8] 0
flow[sink_3,sink_23] 16.3541666666697
flow[sink_8,sink_20] -1.6354166666668334e+01
flow[sink_25,sink_20] 4.8907885325619930e+01
flow[sink_25,sink_15] -9.0402759048347193e+01
flow[sink_15,sink_29] -5.9887938675037553e+01
flow[sink_29,sink_28] 1.6354166666667879e+01
flow[sink_29,sink_2] 6.3223153706642982e+01
flow[sink_2,sink_15] 4.6868987039976318e+01
flow[sink_29,innode_7] -1.5581942571501509e+02
flow[innode_4,sink_19] 4.7567506492828556e+01
flow[sink_19,innode_3] 4.3754485324757994e+01
flow[innode_4,innode_5] 74.8024329597504
flow[sink_27,innode_5] -74.8024329597504
flow[sink_27,sink_19] 5.8448266293083734e+01
flow[sink_10,sink_11] 3.2708333333333641e+01
flow[sink_10,innode_2] -4.5907120794487234e+01
flow[sink_10,innode_3] -4.3754485324757994e+01
flow[innode_6,sink_25] 7.8907727859115866e+00
flow[sink_11,innode_1] 1.6354166666666970e+01
flow[sink_19,innode_2] 4.5907120794487234e+01
flow[source_3,innode_4] 1.2236993945257896e+02
flow[source_2,innode_7] 1.5581942571501509e+02
flow[sink_3,innode_8] 1.4911268648369042e+02
pressure[innode_1] 7.6508086865067384e+01
pressure[innode_2] 7.9086169109278174e+01
pressure[innode_3] 7.8989279756184473e+01
pressure[innode_4] 81.01325
pressure[innode_5] 8.0961796942265778e+01
pressure[innode_6] 74.6526185642424
pressure[innode_7] 81.01325
pressure[innode_8] 8.0405491788898829e+01
pressure[source_1] 81.01325
pressure[source_2] 81.01325
pressure[source_3] 81.01325
pressure[sink_1] 4.0858541534157922e+01
pressure[sink_2] 7.5244176948976360e+01
pressure[sink_3] 8.0405491788898829e+01
pressure[sink_4] 6.1804653787401392e+01
pressure[sink_5] 2.8205218699417685e+01
pressure[sink_6] 4.2959619144545293e+01
pressure[sink_7] 4.1808358753208793e+01
pressure[sink_8] 6.1853472821772904e+01
pressure[sink_9] 5.1910606612772895e+01
pressure[sink_10] 7.6659788172670929e+01
pressure[sink_11] 7.6508086865067384e+01
pressure[sink_12] 1.01325
pressure[sink_13] 74.6961190759405
pressure[sink_14] 7.4739507460303088e+01
pressure[sink_15] 75.0911600360492
pressure[sink_16] 75.4864370302497
pressure[sink_17] 2.6986951494062573e+01
pressure[sink_18] 46.5091671994788
pressure[sink_19] 7.9086169109278174e+01
pressure[sink_20] 6.2993128245361191e+01
pressure[sink_21] 1.7583095671735458e+00
pressure[sink_22] 4.1922310676512929e+01
pressure[sink_23] 8.0240773777239042e+01
pressure[sink_24] 1.9626027532487609e+00
pressure[sink_25] 74.6526185642424
pressure[sink_26] 6.1824311897262930e+01
pressure[sink_27] 8.0341074968733977e+01
pressure[sink_28] 7.6550408510405092e+01
pressure[sink_29] 7.6845690784022281e+01
interdiction[source_1,sink_3] 0
interdiction[innode_1,sink_16] 0
interdiction[innode_6,sink_13] 0
interdiction[sink_13,sink_14] 0
interdiction[sink_14,sink_10] 0
interdiction[sink_25,sink_26] 0
interdiction[sink_26,sink_9] 0
interdiction[sink_9,sink_18] 0
interdiction[sink_26,sink_4] 0
interdiction[sink_4,sink_20] 0
interdiction[sink_18,sink_6] 0
interdiction[sink_25,innode_8] 0
interdiction[sink_6,sink_7] 0
interdiction[sink_6,sink_22] 0
interdiction[sink_7,sink_24] 0
interdiction[sink_22,sink_1] 0
interdiction[sink_24,sink_21] 0
interdiction[sink_21,sink_12] 0
interdiction[sink_7,sink_5] 0
interdiction[sink_5,sink_17] 0
interdiction[sink_17,sink_4] 1
interdiction[sink_17,sink_8] 1
interdiction[sink_3,sink_23] 0
interdiction[sink_8,sink_20] 0
interdiction[sink_25,sink_20] 0
interdiction[sink_25,sink_15] 0
interdiction[sink_15,sink_29] 0
interdiction[sink_29,sink_28] 0
interdiction[sink_29,sink_2] 0
interdiction[sink_2,sink_15] 0
interdiction[sink_29,innode_7] 0
interdiction[innode_4,sink_19] 0
interdiction[sink_19,innode_3] 0
interdiction[innode_4,innode_5] 0
interdiction[sink_27,innode_5] 0
interdiction[sink_27,sink_19] 0
interdiction[sink_10,sink_11] 0
interdiction[sink_10,innode_2] 0
interdiction[sink_10,innode_3] 0
interdiction[innode_6,sink_25] 0
interdiction[sink_11,innode_1] 0
interdiction[sink_19,innode_2] 0
interdiction[source_3,innode_4] 0
interdiction[source_2,innode_7] 0
interdiction[sink_3,innode_8] 0
WCcheckFlow[source_1,sink_3] 39
WCcheckFlow[innode_1,sink_16] 1
WCcheckFlow[innode_6,sink_13] 13
WCcheckFlow[sink_13,sink_14] 12
WCcheckFlow[sink_14,sink_10] 11
WCcheckFlow[sink_25,sink_26] 15
WCcheckFlow[sink_26,sink_9] 11
WCcheckFlow[sink_9,sink_18] 10
WCcheckFlow[sink_26,sink_4] 3
WCcheckFlow[sink_4,sink_20] 2
WCcheckFlow[sink_18,sink_6] 9
WCcheckFlow[sink_25,innode_8] -36
WCcheckFlow[sink_6,sink_7] 6
WCcheckFlow[sink_6,sink_22] 2
WCcheckFlow[sink_7,sink_24] 3
WCcheckFlow[sink_22,sink_1] 1
WCcheckFlow[sink_24,sink_21] 2
WCcheckFlow[sink_21,sink_12] 1
WCcheckFlow[sink_7,sink_5] 2
WCcheckFlow[sink_5,sink_17] 1
WCcheckFlow[sink_17,sink_4] 0
WCcheckFlow[sink_17,sink_8] 0
WCcheckFlow[sink_3,sink_23] 1
WCcheckFlow[sink_8,sink_20] -1
WCcheckFlow[sink_25,sink_20] 0
WCcheckFlow[sink_25,sink_15] 6
WCcheckFlow[sink_15,sink_29] 5
WCcheckFlow[sink_29,sink_28] 1
WCcheckFlow[sink_29,sink_2] 1
WCcheckFlow[sink_2,sink_15] 0
WCcheckFlow[sink_29,innode_7] 2
WCcheckFlow[innode_4,sink_19] -4
WCcheckFlow[sink_19,innode_3] -5
WCcheckFlow[innode_4,innode_5] 2
WCcheckFlow[sink_27,innode_5] -1
WCcheckFlow[sink_27,sink_19] 0
WCcheckFlow[sink_10,sink_11] 3
WCcheckFlow[sink_10,innode_2] 1
WCcheckFlow[sink_10,innode_3] 6
WCcheckFlow[innode_6,sink_25] -14
WCcheckFlow[sink_11,innode_1] 2
WCcheckFlow[sink_19,innode_2] 0
WCcheckFlow[source_3,innode_4] -1
WCcheckFlow[source_2,innode_7] -1
WCcheckFlow[sink_3,innode_8] 37
